frontend/benchmarks/isaplanner/smt2/prop_59.smt20.smt2
(declare-datatype Nat ((Z) (S (proj1-S Nat))))
(declare-datatype list ((nil) (cons (head Nat) (tail list))))
(declare-fun last (list) Nat)
(declare-fun ++ (list list) list)
(assert (= (last nil) Z))
(assert (forall ((y Nat)) (= (last (cons y nil)) y)))
(assert
  (forall ((y Nat) (x2 Nat) (x3 list))
    (= (last (cons y (cons x2 x3))) (last (cons x2 x3)))))
(assert (forall ((y list)) (= (++ nil y) y)))
(assert
  (forall ((y list) (z Nat) (xs list))
    (= (++ (cons z xs) y) (cons z (++ xs y)))))
(assert
  (not
    (forall ((xs list) (ys list))
      (=> (= ys nil) (= (last (++ xs ys)) (last xs))))))
(check-sat)
